(set-info :smt-lib-version 2.6)
(set-logic QF_S)
(set-info :source |
Generated by: Shaoke Cui
Generated on: 2025-04-10
Application: Using String Solvers to solve string matching problems
Target solver: Z3, Z3alpha, Z3-noodler
Benchmarks for string matching problem with wildcards, which needs to determine whether two strings containing two wildcards can match.
Use re.allchar and (re.* re.allchar) to represent wildcards.
Determine whether the two strings match by judging whether the result of re.inter is re.none.
|)
(set-info :license "https://creativecommons.org/licenses/by/4.0/")
(set-info :category "crafted")
(set-info :status unknown)
(assert (= re.none (re.inter  (re.++ (str.to_re "g") (re.* re.allchar) (str.to_re "djrrilceqnyeyeuhksez") (re.* re.allchar) (str.to_re "shrb") (re.* re.allchar) (str.to_re "ya") re.allchar (str.to_re "rbvkmrxbqysbjw") re.allchar (str.to_re "uwoaujctzybsfzattcglghemcudbiaqa") re.allchar (str.to_re "usjecmngrvdadq") re.allchar (str.to_re "u") (re.* re.allchar) (str.to_re "tatvaakfelhkjtxltqhuptgck") (re.* re.allchar) (str.to_re "nvejbtceex") (re.* re.allchar) (str.to_re "qtj") re.allchar (str.to_re "hottme") (re.* re.allchar) (str.to_re "enqgtubsoxrz") (re.* re.allchar) (str.to_re "s") re.allchar (str.to_re "yedaryw") (re.* re.allchar) re.allchar (str.to_re "ahgkdwhp") (re.* re.allchar) (str.to_re "cw") re.allchar (str.to_re "j") (re.* re.allchar) (str.to_re "ictqzcwpzzazifsmic") (re.* re.allchar) (str.to_re "gzsoupyzywqhdjd") (re.* re.allchar) (str.to_re "fsynzkn") (re.* re.allchar) (str.to_re "on") (re.* re.allchar) (str.to_re "yvi") re.allchar (str.to_re "uwttuhguiltt") (re.* re.allchar) (str.to_re "q") (re.* re.allchar) (str.to_re "dwurw") re.allchar (str.to_re "eptkdsk") re.allchar (str.to_re "an") (re.* re.allchar) (str.to_re "wmnbyerw") re.allchar (str.to_re "ejaddqmeiexufctwrwt") re.allchar (str.to_re "lolcaymtwgrpmqsx") re.allchar (str.to_re "kwelshzxmyussqzwjap") (re.* re.allchar) (str.to_re "xqtvmjltafez") (re.* re.allchar) (str.to_re "tvbqvvcoigmead") re.allchar (str.to_re "i") re.allchar (str.to_re "okkrxatxjjnctocmc") re.allchar (str.to_re "kd") (re.* re.allchar) (str.to_re "ripmimb") (re.* re.allchar) (str.to_re "ktpzmbveqkwpmd") (re.* re.allchar) (str.to_re "bxnjekqjvqufurwmgpak") re.allchar (str.to_re "fwannsrrpgz") re.allchar (str.to_re "lc") (re.* re.allchar) (str.to_re "rimh") re.allchar (str.to_re "pnbqqypcgdknmh") re.allchar re.allchar (str.to_re "gzxwzbksvoxvzlfdmajazukiictrptxit") (re.* re.allchar) (str.to_re "ccxvgmiqsuyqtocoawqutmifphqndvvtnpyb") re.allchar (str.to_re "rdf") re.allchar (str.to_re "ewc") re.allchar (str.to_re "caaucuq") (re.* re.allchar) (str.to_re "ganflgyhegsxcotmhlagcspnkyjkcdpabavnkqanq") (re.* re.allchar) (str.to_re "hhmqaclydpiiiyuqplbzmccglzykfvewbkgyzrddvzctfcplwwndegkbjl") re.allchar (str.to_re "elyjc") re.allchar (str.to_re "jnwsvbvostrbkypeusfd") re.allchar (str.to_re "ijfbpzwme") (re.* re.allchar) (str.to_re "jpfehiyhviaxxakubwhjqfqqbv") (re.* re.allchar) (str.to_re "e") (re.* re.allchar) (str.to_re "jutafpnlj") re.allchar (str.to_re "tvhhey") re.allchar (str.to_re "mquvdgzjrsqeefcmlsky") re.allchar (str.to_re "fuswvtuv") (re.* re.allchar) (str.to_re "uoxg") re.allchar (str.to_re "buunxkssfczlxpadbygznbpwdrbej") (re.* re.allchar) (str.to_re "etvkvtqhxmctzzc") re.allchar (re.* re.allchar) (str.to_re "ffabx") (re.* re.allchar) (str.to_re "narondrtwfohurj") (re.* re.allchar) (re.* re.allchar) (str.to_re "z") re.allchar (str.to_re "eiyg") re.allchar (str.to_re "ct") (re.* re.allchar) (str.to_re "jexrkwbl") )   (re.++ (str.to_re "uhpkyvxhtqexmfvafwecvtfyftbdgujwh") re.allchar (str.to_re "cly") re.allchar (str.to_re "yoqnfintuttqxnf") re.allchar (str.to_re "otxcklxo") re.allchar (str.to_re "xatbjzdciqnpqjqtnksdlvabnfblwyt") re.allchar (str.to_re "xq") re.allchar (str.to_re "bo") re.allchar (str.to_re "etnjibrcbzhewg") (re.* re.allchar) (str.to_re "hcgdzlo") (re.* re.allchar) (str.to_re "bbaopzktd") re.allchar (str.to_re "hoqlsttz") re.allchar (str.to_re "cgaveqyoyckuiglrthaqbyaczbws") (re.* re.allchar) (str.to_re "wmfuxfthsfvdfj") re.allchar (str.to_re "edjythnjcmeqeamocexedbslejdsdd") (re.* re.allchar) (str.to_re "h") re.allchar (str.to_re "cioocvszkfky") (re.* re.allchar) (str.to_re "opr") (re.* re.allchar) (str.to_re "qvtx") (re.* re.allchar) (str.to_re "vtusfmedciqaavbmqxkmxcphv") (re.* re.allchar) (str.to_re "yddauxzbyxwqfbonrsehitegpjbdlryam") re.allchar (str.to_re "cvgey") (re.* re.allchar) (str.to_re "jazwhuzhkcon") re.allchar (str.to_re "juopmacic") re.allchar (str.to_re "quvtwwj") re.allchar (str.to_re "bge") (re.* re.allchar) (str.to_re "gumrckfrimlzwudn") (re.* re.allchar) (str.to_re "sssmrbknryzz") (re.* re.allchar) (str.to_re "tugqkzanoyy") re.allchar (str.to_re "cre") (re.* re.allchar) (str.to_re "nqnzu") re.allchar (str.to_re "ax") re.allchar (str.to_re "xfc") (re.* re.allchar) (str.to_re "kmddvf") (re.* re.allchar) (str.to_re "u") (re.* re.allchar) (str.to_re "damqkgaagwutdwhmneqvvyqqattejgczauzxdbktstadtokcxvgwijghgrn") (re.* re.allchar) (str.to_re "wvpl") (re.* re.allchar) (str.to_re "pj") (re.* re.allchar) (str.to_re "bpjhpovqtuk") (re.* re.allchar) (str.to_re "yiy") (re.* re.allchar) (str.to_re "ry") re.allchar (str.to_re "zmaouehfkgcnhbsgwgoa") (re.* re.allchar) (str.to_re "yzqskmttnvxdqra") (re.* re.allchar) (str.to_re "muusws") (re.* re.allchar) (str.to_re "ivhvjmoggiicrqqykmgvcrcgahpgowbkxmgbzhv") re.allchar (str.to_re "uxwtfrtn") (re.* re.allchar) (str.to_re "iqsy") re.allchar (str.to_re "vzmfpckkrjuzrcpfi") (re.* re.allchar) (str.to_re "kxvbgugl") re.allchar (str.to_re "wxtznitrkgmefoawutihrsgpcogbjxbtsazvvogx") re.allchar (str.to_re "kqh") (re.* re.allchar) (str.to_re "jtaoqcpmgir") re.allchar (str.to_re "f") re.allchar (str.to_re "nk") (re.* re.allchar) (str.to_re "lywzcyplkikrnqumsk") (re.* re.allchar) (str.to_re "lvclnmcvwdltjwegil") re.allchar (str.to_re "ghjy") (re.* re.allchar) (str.to_re "slanhahsbf") re.allchar (str.to_re "ia") re.allchar (str.to_re "esdxrqj") re.allchar (str.to_re "bb") re.allchar (str.to_re "nci") re.allchar (str.to_re "siu") re.allchar (str.to_re "mhchubfou") (re.* re.allchar) (str.to_re "tcwihpn") re.allchar (re.* re.allchar) (str.to_re "fgkeiimidpvchrqdbvztuwe") (re.* re.allchar) (str.to_re "emjeymspbipkpqmdo") re.allchar (str.to_re "gw") re.allchar (str.to_re "jk") re.allchar (str.to_re "hwvhji") (re.* re.allchar) (str.to_re "muovdqtswmodljgqdnkkfwcjwcdomzrymqrvwmroizdudzshqzqaavyeytclmsxmj") re.allchar (str.to_re "srn") re.allchar (str.to_re "z") (re.* re.allchar) (str.to_re "ylgvh") re.allchar (str.to_re "gbccjsnp") (re.* re.allchar) (str.to_re "xmutegmgspufgbgtiqz") re.allchar (str.to_re "hlnvq") re.allchar (re.* re.allchar) (str.to_re "fmogysezoxdjgv") re.allchar (str.to_re "psvychawmchlynxqlwewhxsbgxsyftjdnnmtowmevlqzvpuvsggbtdoivjrnyxgwis") re.allchar (str.to_re "fdehfdynhciqsglvtggwzizwaxy") (re.* re.allchar) (re.* re.allchar) (str.to_re "imndugexvgwjoraqdwiezjsudnm") re.allchar (str.to_re "jkeixzqktow") re.allchar (str.to_re "tcvxmb") re.allchar (str.to_re "rnffdwrbrgqlehrlucdymp") re.allchar (str.to_re "efwmikpkkvlxhfewfxntzkqluvtoukugmykjhoepplhqlea") (re.* re.allchar) (str.to_re "kuuci") re.allchar (str.to_re "n") re.allchar (str.to_re "cfmqnkgtriqamvzzgklrtgf") re.allchar (str.to_re "iukpfuwaqv") (re.* re.allchar) (str.to_re "gduxsmcele") re.allchar (str.to_re "hzcesflbvsnwialm") re.allchar (str.to_re "jhber") (re.* re.allchar) (str.to_re "brp") (re.* re.allchar) (str.to_re "qyteiehgmgjtqnfuppeaedsvrktvrmrqiruxpyufbkppenigvojrdshwlffhotlgrpkyhqhghxjcayh") re.allchar (str.to_re "uqnjgbzyql") (re.* re.allchar) (re.* re.allchar) (str.to_re "fzjucqwuf") (re.* re.allchar) re.allchar (str.to_re "issjpom") re.allchar (str.to_re "ookukco") (re.* re.allchar) (str.to_re "rvqxdxzdb") re.allchar (str.to_re "c") re.allchar (str.to_re "qvdvqpeayyami") (re.* re.allchar) (str.to_re "qu") (re.* re.allchar) (str.to_re "axnzezswwpwl") re.allchar (str.to_re "aysibrwm") re.allchar (str.to_re "ax") re.allchar (str.to_re "kqfdulvewgyohgfkxzxodvxewbwiqflidvdypeoxkfr") re.allchar (str.to_re "f") (re.* re.allchar) (str.to_re "wubbdjpoqtfbcajkouwcqniuyx") re.allchar (str.to_re "ugtbxgqccgkcrrkq") (re.* re.allchar) (str.to_re "x") (re.* re.allchar) (str.to_re "brx") re.allchar (str.to_re "xaoftzdlvujefkisjyubvfbncgdchuksqagtrm") (re.* re.allchar) (str.to_re "exljy") (re.* re.allchar) (str.to_re "wzxfmurqyzosnnroxzosakcivikg") re.allchar (str.to_re "lbfffmzfsufnqzyjoucxxqfksfjmptdnntvxbxzwb") (re.* re.allchar) re.allchar (str.to_re "ecodg") (re.* re.allchar) (str.to_re "zqix") re.allchar re.allchar (str.to_re "vn") re.allchar (str.to_re "hlto") (re.* re.allchar) (str.to_re "gtaodnywfvrjyaqq") re.allchar (str.to_re "gg") re.allchar (str.to_re "xilsgfpnatxmaoscgt") (re.* re.allchar) (str.to_re "hxlsmrfju") (re.* re.allchar) (str.to_re "nixrffwgcbytonvedymdbsjrkxvdkftleppqsie") re.allchar (str.to_re "xswcblbtruroutztqibztlyhaq") re.allchar (str.to_re "xnic") re.allchar (str.to_re "tb") (re.* re.allchar) (str.to_re "eomyrzcapdapjtbbtmr") re.allchar (str.to_re "efdacxbfubdhjyqasgk") re.allchar (str.to_re "kseivmclpvpmuqbjrthpumml") (re.* re.allchar) (str.to_re "wqfnwlgg") (re.* re.allchar) (str.to_re "bcnsfkm") (re.* re.allchar) (str.to_re "jnwaumhfddvjumtmn") (re.* re.allchar) re.allchar (str.to_re "scwe") re.allchar (str.to_re "aszbjgxwedvmshhkwcnb") (re.* re.allchar) (str.to_re "hdy") (re.* re.allchar) (str.to_re "ecpvusahiv") (re.* re.allchar) (str.to_re "mulhpsm") (re.* re.allchar) (str.to_re "uj") (re.* re.allchar) (str.to_re "uxmas") (re.* re.allchar) (str.to_re "hprxg") (re.* re.allchar) (str.to_re "gsmemnxxhrpvqqsqkzpvagirzvkgjvqtfocltmw") re.allchar (str.to_re "gwqgwyfzixlqxgwlrhqqdnxohrsfdphzghknrahflny") (re.* re.allchar) (str.to_re "uhsh") re.allchar (str.to_re "v") (re.* re.allchar) (str.to_re "udaywke") re.allchar (str.to_re "fqfibgnkgvutvyqkhhe") (re.* re.allchar) (str.to_re "rlbtagz") (re.* re.allchar) (str.to_re "liaxatnmwmzlnfoagjiwttmxofseazvnmwomxbxcioyzqyfsioozoudeeoacn") re.allchar (re.* re.allchar) (str.to_re "mxrgitrcevuhlstzlqxrk") (re.* re.allchar) (str.to_re "cvbikbzfmm") re.allchar (str.to_re "tymsqykqqbhhjlzokrnsdezkiqxcjxlsvg") (re.* re.allchar) (str.to_re "cnalriwduivxm") (re.* re.allchar) (re.* re.allchar) (str.to_re "dlcbvopyyjebivkj") (re.* re.allchar) (str.to_re "fity") re.allchar (str.to_re "bgquhzrymuzehollmimlryrfabjelk") re.allchar (str.to_re "zrfhzdlafxfhkx") re.allchar (str.to_re "ocw") (re.* re.allchar) (str.to_re "l") (re.* re.allchar) (str.to_re "kunxxotsczmw") (re.* re.allchar) (str.to_re "lk") re.allchar (str.to_re "lopytyn") re.allchar (str.to_re "pgflhogufwyyqbzytsffnbervnwxblpbyz") (re.* re.allchar) (str.to_re "ibvsfisrrqqppsbrgs") re.allchar (str.to_re "xfzozclodpzvyuc") (re.* re.allchar) (str.to_re "vylmchxpcoxrlxfenmpbv") re.allchar (str.to_re "vekehtwp") (re.* re.allchar) (str.to_re "cjv") re.allchar (str.to_re "jfqapwigcnpaofuaslxtd") re.allchar (str.to_re "wpcisov") (re.* re.allchar) (str.to_re "gpxjrptqfnvulwaskthqldkwjgpjqaxigq") re.allchar (str.to_re "kbiaisiayvwdthdsuoypxxqppzybdegg") re.allchar (str.to_re "mwkfgpycdutd") re.allchar (str.to_re "zqusvpxsgsa") (re.* re.allchar) (str.to_re "cqjrnkhgeoyxvst") (re.* re.allchar) (str.to_re "owfdlexoihbyed") re.allchar (str.to_re "kjxewasjlnqjwibreiuaiwngbkbntthrhy") (re.* re.allchar) (str.to_re "vpbdqxhlfenxykekqryuvblijok") (re.* re.allchar) (str.to_re "lhe") (re.* re.allchar) (str.to_re "wyqjftfjpjkfcxmalvxuevnfrhxkftw") re.allchar re.allchar (str.to_re "qilce") re.allchar (str.to_re "nhvbupszndpagu") re.allchar (str.to_re "xqovhrdfltxvngothnouckksmjtdfprozmdwhvkbetoori") (re.* re.allchar) (str.to_re "uflt") (re.* re.allchar) (str.to_re "ychtxybzkejyagbuwdbg") (re.* re.allchar) (str.to_re "ej") (re.* re.allchar) (str.to_re "vbox") (re.* re.allchar) (str.to_re "fqwmg") re.allchar (str.to_re "amucxq") (re.* re.allchar) (str.to_re "qbnimzi") (re.* re.allchar) (str.to_re "wewdxssqy") (re.* re.allchar) (str.to_re "akgahwoz") re.allchar (str.to_re "brtardedbtnwraicjpzzcihbravxfxz") (re.* re.allchar) (str.to_re "qhptk") (re.* re.allchar) (str.to_re "gfnlkwxpluvmwqiyxtc") (re.* re.allchar) re.allchar (str.to_re "rzqwte") re.allchar (str.to_re "bnlppsdgxxuafodcpzbfjtgqftemen") (re.* re.allchar) (str.to_re "azukaeiqis") (re.* re.allchar) (str.to_re "hgzxsdarzieioxueisgjrup") (re.* re.allchar) (str.to_re "ujlmysaffkzvfbvrevhstxftehuqzznmgjqjovz") (re.* re.allchar) (str.to_re "boa") (re.* re.allchar) (str.to_re "ftzykfiqct") re.allchar re.allchar (str.to_re "fyejq") (re.* re.allchar) (str.to_re "jat") re.allchar (str.to_re "wvwreem") (re.* re.allchar) (str.to_re "fg") (re.* re.allchar) (str.to_re "tqhew") re.allchar (str.to_re "cmf") (re.* re.allchar) (str.to_re "qvzobvtgtd") re.allchar (str.to_re "dplwnmhbwcuzhtd") re.allchar (str.to_re "ug") re.allchar (str.to_re "iwqq") (re.* re.allchar) (str.to_re "dkt") (re.* re.allchar) (str.to_re "iqup") (re.* re.allchar) (str.to_re "ygr") (re.* re.allchar) (str.to_re "sugdwlcycckenohhi") re.allchar (str.to_re "hxlfm") (re.* re.allchar) (str.to_re "fhfinjw") (re.* re.allchar) (str.to_re "sgjytuxjjmt") re.allchar (str.to_re "opzorjumhap") (re.* re.allchar) (str.to_re "gtpsigp") (re.* re.allchar) (str.to_re "htlzwdgukjeueve") (re.* re.allchar) (str.to_re "uewahbqamidmtzlmrlgzxketjsqfaosisoibvkkjsdihkirmasbotdljbkitvuwlmxnorjsrbawqrpbnkrezwpnxwpqkxagnctdoyqe") re.allchar (str.to_re "qywtakoyytemjkequnhabxoddxgjotvahawtvg") )  )))
(check-sat)
(exit)
